% demand
num_movements = 26;
loading_factor = [1600, 1750, 800, 1950, 900, 1500, 1250, 800, 1500, 1250, 1950, 1650, 1450, 1800, 850, 1000, 1600, 1000, 1050, 1100, 1950, 1100, 900, 1200, 900, 1900];
pickup_time = [0, 0, 0, 0, 0, 1, 1, 1, 4, 4, 4, 6, 6, 6, 7, 8, 8, 8, 9, 9, 10, 11, 12, 12, 12, 12];
delivery_time = [1, 4, 4, 1, 4, 4, 10, 5, 6, 6, 6, 8, 8, 8, 8, 10, 10, 10, 10, 10, 11, 13, 13, 13, 13, 13];

% transporter definition
total_capacity = 7000;
num_decks = 3;
capacity = [3000, 1000, 3000];

% ways out of decks
num_ways_out = 1;
paths_out = array3d(decks, ways_out, decks, [
% ways out of deck d1
2, 3, 0, 

% ways out of deck d2
3, 0, 0, 

% ways out of deck d3
0, 0, 0,	

]);

